POSCAR
1.0
  4.0000000000  0.0000000000  0.0000000000
  0.0000000000  4.0000000000  0.0000000000
  0.0000000000  0.0000000000  5.0000000000
  Mo Nb Ta W 
  40 40 40 40 
Cartesian
  1.0000000000  4.0000000000  5.0000000000
  0.5000000000  0.5000000000  0.5000000000
  2.5000000000  0.5000000000  0.5000000000
  0.5000000000  0.5000000000  1.5000000000
  1.0000000000  4.0000000000  2.0000000000
  4.0000000000  2.0000000000  5.0000000000
  2.0000000000  1.0000000000  1.0000000000
  2.5000000000  1.5000000000  0.5000000000
  4.0000000000  1.0000000000  2.0000000000
  0.5000000000  1.5000000000  1.5000000000
  2.0000000000  2.0000000000  1.0000000000
  2.5000000000  2.5000000000  0.5000000000
  3.5000000000  2.5000000000  0.5000000000
  4.0000000000  4.0000000000  4.0000000000
  1.0000000000  1.0000000000  3.0000000000
  2.0000000000  4.0000000000  4.0000000000
  1.5000000000  1.5000000000  2.5000000000
  2.0000000000  3.0000000000  1.0000000000
  3.5000000000  1.5000000000  2.5000000000
  2.5000000000  3.5000000000  0.5000000000
  3.0000000000  3.0000000000  1.0000000000
  4.0000000000  1.0000000000  4.0000000000
  0.5000000000  0.5000000000  4.5000000000
  0.5000000000  1.5000000000  3.5000000000
  0.5000000000  2.5000000000  2.5000000000
  1.5000000000  1.5000000000  3.5000000000
  2.5000000000  0.5000000000  4.5000000000
  2.5000000000  3.5000000000  1.5000000000
  3.0000000000  3.0000000000  2.0000000000
  3.5000000000  2.5000000000  2.5000000000
  2.0000000000  2.0000000000  4.0000000000
  2.0000000000  3.0000000000  3.0000000000
  2.5000000000  2.5000000000  3.5000000000
  3.5000000000  3.5000000000  2.5000000000
  1.5000000000  2.5000000000  4.5000000000
  1.5000000000  3.5000000000  3.5000000000
  2.5000000000  2.5000000000  4.5000000000
  3.0000000000  3.0000000000  4.0000000000
  3.5000000000  2.5000000000  4.5000000000
  1.5000000000  3.5000000000  4.5000000000
  4.0000000000  4.0000000000  5.0000000000
  4.0000000000  4.0000000000  1.0000000000
  1.0000000000  1.0000000000  5.0000000000
  2.0000000000  4.0000000000  1.0000000000
  3.0000000000  4.0000000000  1.0000000000
  1.0000000000  1.0000000000  1.0000000000
  1.5000000000  0.5000000000  1.5000000000
  1.0000000000  2.0000000000  5.0000000000
  1.0000000000  4.0000000000  3.0000000000
  1.5000000000  0.5000000000  2.5000000000
  4.0000000000  3.0000000000  5.0000000000
  0.5000000000  2.5000000000  0.5000000000
  1.5000000000  1.5000000000  1.5000000000
  3.0000000000  4.0000000000  3.0000000000
  1.5000000000  2.5000000000  0.5000000000
  2.5000000000  1.5000000000  1.5000000000
  3.0000000000  1.0000000000  2.0000000000
  3.0000000000  2.0000000000  1.0000000000
  3.5000000000  1.5000000000  1.5000000000
  4.0000000000  2.0000000000  2.0000000000
  0.5000000000  1.5000000000  2.5000000000
  1.5000000000  0.5000000000  3.5000000000
  4.0000000000  3.0000000000  1.0000000000
  1.0000000000  2.0000000000  2.0000000000
  2.5000000000  0.5000000000  3.5000000000
  3.0000000000  4.0000000000  4.0000000000
  0.5000000000  3.5000000000  0.5000000000
  2.0000000000  2.0000000000  2.0000000000
  3.0000000000  1.0000000000  3.0000000000
  3.5000000000  0.5000000000  3.5000000000
  2.5000000000  2.5000000000  1.5000000000
  4.0000000000  3.0000000000  2.0000000000
  0.5000000000  3.5000000000  1.5000000000
  1.0000000000  3.0000000000  2.0000000000
  1.0000000000  2.0000000000  4.0000000000
  1.5000000000  1.5000000000  4.5000000000
  1.5000000000  2.5000000000  3.5000000000
  3.5000000000  1.5000000000  4.5000000000
  3.0000000000  3.0000000000  3.0000000000
  4.0000000000  3.0000000000  4.0000000000
  3.0000000000  4.0000000000  5.0000000000
  4.0000000000  1.0000000000  5.0000000000
  1.0000000000  4.0000000000  1.0000000000
  2.0000000000  1.0000000000  5.0000000000
  3.0000000000  1.0000000000  5.0000000000
  3.5000000000  0.5000000000  0.5000000000
  4.0000000000  4.0000000000  2.0000000000
  3.0000000000  1.0000000000  1.0000000000
  4.0000000000  4.0000000000  3.0000000000
  1.0000000000  1.0000000000  2.0000000000
  1.0000000000  2.0000000000  1.0000000000
  2.0000000000  1.0000000000  2.0000000000
  2.5000000000  0.5000000000  2.5000000000
  1.0000000000  3.0000000000  5.0000000000
  2.0000000000  3.0000000000  5.0000000000
  3.0000000000  3.0000000000  5.0000000000
  0.5000000000  0.5000000000  3.5000000000
  0.5000000000  2.5000000000  1.5000000000
  2.0000000000  1.0000000000  3.0000000000
  1.5000000000  2.5000000000  1.5000000000
  2.5000000000  1.5000000000  2.5000000000
  1.5000000000  3.5000000000  0.5000000000
  3.5000000000  3.5000000000  0.5000000000
  1.0000000000  1.0000000000  4.0000000000
  1.5000000000  0.5000000000  4.5000000000
  1.0000000000  2.0000000000  3.0000000000
  2.0000000000  1.0000000000  4.0000000000
  2.0000000000  2.0000000000  3.0000000000
  2.5000000000  1.5000000000  3.5000000000
  1.5000000000  3.5000000000  1.5000000000
  2.0000000000  3.0000000000  2.0000000000
  2.5000000000  2.5000000000  2.5000000000
  3.5000000000  1.5000000000  3.5000000000
  4.0000000000  2.0000000000  4.0000000000
  0.5000000000  1.5000000000  4.5000000000
  0.5000000000  3.5000000000  2.5000000000
  3.0000000000  2.0000000000  4.0000000000
  0.5000000000  3.5000000000  3.5000000000
  0.5000000000  3.5000000000  4.5000000000
  3.5000000000  3.5000000000  4.5000000000
  2.0000000000  4.0000000000  5.0000000000
  1.5000000000  0.5000000000  0.5000000000
  4.0000000000  1.0000000000  1.0000000000
  0.5000000000  1.5000000000  0.5000000000
  2.0000000000  4.0000000000  2.0000000000
  1.5000000000  1.5000000000  0.5000000000
  2.5000000000  0.5000000000  1.5000000000
  3.0000000000  4.0000000000  2.0000000000
  2.0000000000  2.0000000000  5.0000000000
  3.5000000000  0.5000000000  1.5000000000
  3.0000000000  2.0000000000  5.0000000000
  3.5000000000  1.5000000000  0.5000000000
  0.5000000000  0.5000000000  2.5000000000
  4.0000000000  2.0000000000  1.0000000000
  2.0000000000  4.0000000000  3.0000000000
  3.5000000000  0.5000000000  2.5000000000
  4.0000000000  1.0000000000  3.0000000000
  1.0000000000  4.0000000000  4.0000000000
  1.0000000000  3.0000000000  1.0000000000
  3.0000000000  2.0000000000  2.0000000000
  3.5000000000  2.5000000000  1.5000000000
  4.0000000000  2.0000000000  3.0000000000
  1.5000000000  2.5000000000  2.5000000000
  3.0000000000  1.0000000000  4.0000000000
  3.5000000000  0.5000000000  4.5000000000
  3.0000000000  2.0000000000  3.0000000000
  3.5000000000  3.5000000000  1.5000000000
  4.0000000000  3.0000000000  3.0000000000
  0.5000000000  2.5000000000  3.5000000000
  1.0000000000  3.0000000000  3.0000000000
  2.5000000000  1.5000000000  4.5000000000
  1.5000000000  3.5000000000  2.5000000000
  2.5000000000  3.5000000000  2.5000000000
  3.5000000000  2.5000000000  3.5000000000
  0.5000000000  2.5000000000  4.5000000000
  1.0000000000  3.0000000000  4.0000000000
  2.0000000000  3.0000000000  4.0000000000
  2.5000000000  3.5000000000  3.5000000000
  3.5000000000  3.5000000000  3.5000000000
  2.5000000000  3.5000000000  4.5000000000